
Gurobi 11.0.0 (win64) logging started Thu May  9 15:57:41 2024

Set parameter LogFile to value "./Results/StripPacking-StaticBoundRuns/Logs/SBuL-010-StripPacking-10.log"
Set parameter TimeLimit to value 10800
Set parameter Cuts to value 0
Set parameter Presolve to value 1
Set parameter Heuristics to value 0
Set parameter LPWarmStart to value 2
Gurobi Optimizer version 11.0.0 build v11.0.0rc2 (win64 - Windows 10.0 (19045.2))

CPU model: Intel(R) Core(TM) i9-10980XE CPU @ 3.00GHz, instruction set [SSE2|AVX|AVX2|AVX512]
Thread count: 18 physical cores, 36 logical processors, using up to 18 threads

Optimize a model with 190 rows, 111 columns and 740 nonzeros
Model fingerprint: 0x3fbef753
Variable types: 21 continuous, 90 integer (90 binary)
Coefficient statistics:
  Matrix range     [1e+00, 1e+04]
  Objective range  [1e+00, 1e+00]
  Bounds range     [1e+00, 1e+04]
  RHS range        [3e+00, 1e+04]

User MIP start produced solution with objective 50 (0.00s)
Loaded user MIP start with objective 50

Presolve time: 0.00s
Presolved: 190 rows, 111 columns, 740 nonzeros
Variable types: 21 continuous, 90 integer (90 binary)

Root relaxation: objective 3.500000e+01, 42 iterations, 0.00 seconds (0.00 work units)

    Nodes    |    Current Node    |     Objective Bounds      |     Work
 Expl Unexpl |  Obj  Depth IntInf | Incumbent    BestBd   Gap | It/Node Time

     0     0   35.00000    0    3   50.00000   35.00000  30.0%     -    0s
     0     0   35.00000    0    3   50.00000   35.00000  30.0%     -    0s
     0     2   35.00000    0    3   50.00000   35.00000  30.0%     -    0s
*  580   704              31      48.0000000   35.00000  27.1%   3.2    0s
*  868  1312              46      47.0000000   35.00000  25.5%   3.1    0s
*  974  1312              34      46.0000000   35.00000  23.9%   3.1    0s
* 1379  1312              47      45.0000000   35.00000  22.2%   2.9    0s
* 2052  1674              43      44.0000000   35.00000  20.5%   2.8    0s
* 3295  1674              49      41.0000000   35.00000  14.6%   2.6    0s
* 7305  1471              26      39.0000000   35.00000  10.3%   2.7    0s

Explored 9584 nodes (36588 simplex iterations) in 0.16 seconds (0.06 work units)
Thread count was 18 (of 36 available processors)

Solution count 8: 39 41 44 ... 50

Optimal solution found (tolerance 1.00e-04)
Best objective 3.900000000000e+01, best bound 3.900000000000e+01, gap 0.0000%
